
#(C) 2014 by Fachinformationszentrum Karlsruhe.  All rights reserved.
data_162930-ICSD
_database_code_ICSD 162930
_audit_creation_date 2009-08-01
_chemical_name_systematic 'Strontium hafnate - LT'
_chemical_formula_structural 'Sr (Hf O3)'
_chemical_formula_sum 'Hf1 O3 Sr1'
_chemical_name_structure_type GdFeO3
_exptl_crystal_density_diffrn 7.6
_cell_measurement_temperature 0.
_cell_measurement_pressure 0.
_publ_section_title

;
Surface relaxation and tilting in Sr Hf O3 orthorhombic perovskite: hybrid
HF-DFT LCAO calculations
;
loop_
_citation_id
_citation_journal_full
_citation_year
_citation_journal_volume
_citation_page_first
_citation_page_last
_citation_journal_id_ASTM
primary 'Surface science' 2008 602 3674 3682 SUSCAS
loop_
_publ_author_name
'Evarestov, R.A.'
'Bandura, A.V.'
'Blokhin, E.N.'
_cell_length_a 5.77
_cell_length_b 5.814
_cell_length_c 8.179
_cell_angle_alpha 90.
_cell_angle_beta 90.
_cell_angle_gamma 90.
_cell_volume 274.38
_cell_formula_units_Z 4
_symmetry_space_group_name_H-M 'P b n m'
_symmetry_Int_Tables_number 62
loop_
_symmetry_equiv_pos_site_id
_symmetry_equiv_pos_as_xyz
1 '-x+1/2, y+1/2, z'
2 'x, y, -z+1/2'
3 'x+1/2, -y+1/2, z+1/2'
4 '-x, -y, -z'
5 'x+1/2, -y+1/2, -z'
6 '-x, -y, z+1/2'
7 '-x+1/2, y+1/2, -z+1/2'
8 'x, y, z'
loop_
_atom_type_symbol
_atom_type_oxidation_number
Sr2+ 2
Hf4+ 4
O2- -2
loop_
_atom_site_label
_atom_site_type_symbol
_atom_site_symmetry_multiplicity
_atom_site_Wyckoff_symbol
_atom_site_fract_x
_atom_site_fract_y
_atom_site_fract_z
_atom_site_B_iso_or_equiv
_atom_site_occupancy
_atom_site_attached_hydrogens
Sr1 Sr2+ 4 c 0.0066 0.5296 0.25 . 1. 0
Hf1 Hf4+ 4 b 0.5 0 0 . 1. 0
O1 O2- 4 c -0.0733 -0.0185 0.25 . 1. 0
O2 O2- 8 d 0.2149 0.2849 0.0386 . 1. 0
#End of TTdata_162930-ICSD